(set-info :smt-lib-version 2.6)
(set-logic ALL)
(set-info :source |
Generated on: 2026-06-22
Generator: ppTransSmt github.com/CLEARSY/pptranspog
Application: Discharging a proof obligation generated by aTelierB from an anonymized B machine
Target solver: CVC5 (--mbqi --enum-inst)
Time limit: 1200.0
|)
(set-info :license "www.gnu.org/licenses/gpl-3.0.en.html")
(set-info :category "industrial")
(set-info :status unknown)

; Prelude
(declare-sort P 1)
(declare-fun mem0 (Int (P Int)) Bool)
(declare-sort C 2)
(define-fun MinInt () Int (- 2147483648))
(define-fun MaxInt () Int 2147483647)
; Global declarations
(declare-fun g_s0_1 () Int)
(declare-fun g_s10_10 () Int)
(declare-fun g_s11_11 () Int)
(declare-fun g_s12_12 () Int)
(declare-fun g_s13_13 () (P (C Int Int)))
(declare-fun g_s14_14 () (P (C Int Int)))
(declare-fun g_s15_15 () (P (C Int Int)))
(declare-fun g_s16_16 () (P Int))
(declare-fun g_s17_17 () (P (C Int Int)))
(declare-fun g_s18_18 () (P (C (C Int Int) Int)))
(declare-fun g_s19_19 () (P (C Int Int)))
(declare-fun g_s1_0 () (P Int))
(declare-fun g_s20_20 () (P Int))
(declare-fun g_s21_21 () Int)
(declare-fun g_s22_22 () Int)
(declare-fun g_s23_23 () Int)
(declare-fun g_s24_24 () Int)
(declare-fun g_s25_25 () Int)
(declare-fun g_s26_26 () Int)
(declare-fun g_s27_27 () Int)
(declare-fun g_s28_28 () (P Int))
(declare-fun g_s29_31 () Int)
(declare-fun g_s2_3 () Int)
(declare-fun g_s30_29 () (P (C Int Int)))
(declare-fun g_s31_30 () (P (C Int Int)))
(declare-fun g_s32_32 () (P (C (C Int Int) Int)))
(declare-fun g_s33_33 () (P (C (C Int Int) Int)))
(declare-fun g_s34_34 () (P (C (C Int Int) Int)))
(declare-fun g_s35_35 () (P (C (C Int Int) Int)))
(declare-fun g_s36_36 () (P (C (C Int Int) Int)))
(declare-fun g_s37_37 () (P (C (C (C Int Int) Int) Int)))
(declare-fun g_s38_38 () Int)
(declare-fun g_s39_39 () Int)
(declare-fun g_s3_2 () (P Int))
(declare-fun g_s40_40 () Int)
(declare-fun g_s41_41 () Int)
(declare-fun g_s42_42 () Int)
(declare-fun g_s43_43 () Int)
(declare-fun g_s44$1_44 () Int)
(declare-fun g_s44_70 () Int)
(declare-fun g_s45$1_48 () Int)
(declare-fun g_s45_71 () Int)
(declare-fun g_s46$1_45 () (P (C Int Int)))
(declare-fun g_s46_72 () (P (C Int Int)))
(declare-fun g_s47$1_46 () (P (C Int Int)))
(declare-fun g_s47_73 () (P (C Int Int)))
(declare-fun g_s48_47 () (P (C Int Int)))
(declare-fun g_s49$1_49 () Int)
(declare-fun g_s49_69 () Int)
(declare-fun g_s4_4 () (P Int))
(declare-fun g_s50_50 () (P (C Int Int)))
(declare-fun g_s51_52 () Int)
(declare-fun g_s52_51 () Int)
(declare-fun g_s53_53 () (P (C Int Int)))
(declare-fun g_s54_54 () (P (C (C Int Int) Int)))
(declare-fun g_s55_55 () (P (C Int Int)))
(declare-fun g_s56$1_80 () (P (C (C (C Int Int) Int) Int)))
(declare-fun g_s56_56 () (P (C (C (C Int Int) Int) Int)))
(declare-fun g_s57$1_62 () Int)
(declare-fun g_s57_61 () Int)
(declare-fun g_s58$1_57 () Int)
(declare-fun g_s58_63 () Int)
(declare-fun g_s59$1_58 () Int)
(declare-fun g_s59$2_79 () Int)
(declare-fun g_s59_64 () Int)
(declare-fun g_s5_5 () (P Int))
(declare-fun g_s60$1_59 () Int)
(declare-fun g_s60_65 () Int)
(declare-fun g_s61$1_60 () Int)
(declare-fun g_s61_66 () Int)
(declare-fun g_s62$1_68 () Bool)
(declare-fun g_s62_67 () Bool)
(declare-fun g_s63$1_74 () (P (C Int Int)))
(declare-fun g_s64$1_75 () (P (C Int Int)))
(declare-fun g_s65$1_76 () (P (C Int Int)))
(declare-fun g_s66$1_78 () Bool)
(declare-fun g_s67$1_77 () (P Int))
(declare-fun g_s6_6 () (P Int))
(declare-fun g_s7_7 () (P Int))
(declare-fun g_s8_8 () (P Int))
(declare-fun g_s9_9 () Int)
(declare-fun mem2 ( Int Int (P (C Int Int))) Bool)
(declare-fun mem3 ( Int Int Int (P (C (C Int Int) Int))) Bool)
(declare-fun mem4 ( Int Int Int Int (P (C (C (C Int Int) Int) Int))) Bool)
; Defines
(define-fun |def_lprp_0| () Bool (mem0 g_s0_1 g_s1_0))
(define-fun |def_lprp_1| () Bool (mem0 g_s2_3 g_s3_2))
(define-fun |def_lprp_2| () Bool (forall ( (x_3 Int) ) (=> (mem0 x_3 g_s4_4) (mem0 x_3 g_s5_5))))
(define-fun |def_lprp_3| () Bool (forall ( (x_4 Int) ) (=> (mem0 x_4 g_s6_6) (mem0 x_4 g_s5_5))))
(define-fun |def_lprp_4| () Bool (forall ( (x_5 Int) ) (=> (mem0 x_5 g_s7_7) (mem0 x_5 g_s5_5))))
(define-fun |def_lprp_5| () Bool (forall ( (x_6 Int) ) (=> (mem0 x_6 g_s8_8) (mem0 x_6 g_s5_5))))
(define-fun |def_lprp_6| () Bool (mem0 g_s9_9 g_s5_5))
(define-fun |def_lprp_7| () Bool (mem0 g_s10_10 g_s5_5))
(define-fun |def_lprp_8| () Bool (mem0 g_s11_11 g_s5_5))
(define-fun |def_lprp_9| () Bool (mem0 g_s12_12 g_s5_5))
(define-fun |def_lprp_10| () Bool (forall ( (x_7 Int) (x_8 Int) ) (=> (mem2 x_8 x_7 g_s13_13) (and (mem0 x_8 g_s5_5) (mem0 x_7 g_s3_2)))))
(define-fun |def_lprp_11| () Bool (forall ( (x_9 Int) (x_10 Int) ) (=> (mem2 x_10 x_9 g_s14_14) (and (mem0 x_10 g_s5_5) (mem0 x_9 g_s3_2)))))
(define-fun |def_lprp_12| () Bool (forall ( (x_11 Int) (x_12 Int) ) (=> (mem2 x_12 x_11 g_s15_15) (and (mem0 x_12 g_s5_5) (mem0 x_11 g_s3_2)))))
(define-fun |def_lprp_13| () Bool (forall ( (x_13 Int) ) (=> (mem0 x_13 g_s16_16) (mem0 x_13 g_s3_2))))
(define-fun |def_lprp_14| () Bool (forall ( (x_14 Int) ) (=> (mem0 x_14 g_s6_6) (mem0 x_14 g_s4_4))))
(define-fun |def_lprp_15| () Bool (forall ( (x_15 Int) ) (=> (mem0 x_15 g_s7_7) (and (mem0 x_15 g_s5_5) (not (mem0 x_15 g_s4_4))))))
(define-fun |def_lprp_16| () Bool (forall ( (x_16 Int) ) (=> (mem0 x_16 g_s8_8) (and (mem0 x_16 g_s5_5) (not (or (mem0 x_16 g_s4_4) (mem0 x_16 g_s7_7)))))))
(define-fun |def_lprp_17| () Bool (and (mem0 g_s9_9 g_s5_5) (not (or (or (or (mem0 g_s9_9 g_s4_4) (mem0 g_s9_9 g_s7_7)) (mem0 g_s9_9 g_s8_8)) (or  (= g_s9_9 g_s10_10) (= g_s9_9 g_s11_11) (= g_s9_9 g_s12_12))))))
(define-fun |def_lprp_18| () Bool (and (mem0 g_s10_10 g_s5_5) (not (or (or (or (mem0 g_s10_10 g_s4_4) (mem0 g_s10_10 g_s7_7)) (mem0 g_s10_10 g_s8_8)) (or  (= g_s10_10 g_s9_9) (= g_s10_10 g_s11_11) (= g_s10_10 g_s12_12))))))
(define-fun |def_lprp_19| () Bool (and (mem0 g_s11_11 g_s5_5) (not (or (or (or (mem0 g_s11_11 g_s4_4) (mem0 g_s11_11 g_s7_7)) (mem0 g_s11_11 g_s8_8)) (or  (= g_s11_11 g_s9_9) (= g_s11_11 g_s10_10) (= g_s11_11 g_s12_12))))))
(define-fun |def_lprp_20| () Bool (and (mem0 g_s12_12 g_s5_5) (not (or (or (or (mem0 g_s12_12 g_s4_4) (mem0 g_s12_12 g_s7_7)) (mem0 g_s12_12 g_s8_8)) (or  (= g_s12_12 g_s9_9) (= g_s12_12 g_s10_10) (= g_s12_12 g_s11_11))))))
(define-fun |def_lprp_21| () Bool (forall ( (x_17 Int) ) (= (mem0 x_17 g_s5_5) (or (or (or (mem0 x_17 g_s4_4) (mem0 x_17 g_s7_7)) (mem0 x_17 g_s8_8)) (or  (= x_17 g_s9_9) (= x_17 g_s10_10) (= x_17 g_s11_11) (= x_17 g_s12_12))))))
(define-fun |def_lprp_22| () Bool (forall ( (x_18 Int) (x_19 Int) ) (= (mem2 x_19 x_18 g_s17_17) (or (or (or (or (or (or (and  (mem2 x_19 x_18 g_s13_13) (mem0 x_19 g_s4_4)) (and (mem0 x_19 g_s8_8) (mem0 x_18 g_s16_16))) (and (or  (= x_19 g_s9_9) (= x_19 g_s10_10)) (mem0 x_18 g_s16_16))) (and (mem0 x_19 g_s7_7) (= x_18 g_s2_3))) (and (mem0 x_19 g_s6_6) (mem0 x_18 g_s3_2))) (and (= x_19 g_s11_11) (mem0 x_18 g_s3_2))) (and (= x_19 g_s12_12) (= x_18 g_s2_3))))))
(define-fun |def_lprp_23| () Bool (forall ( (x_20 Int) (x_21 Int) (x_22 Int) ) (= (mem3 x_22 x_21 x_20 g_s18_18) (or (and (or (or (and  (mem2 x_22 x_21 g_s14_14) (mem0 x_22 g_s4_4)) (and (mem0 x_22 g_s8_8) (mem0 x_21 g_s16_16))) (and (= x_22 g_s12_12) (= x_21 g_s2_3))) (mem0 x_20 g_s1_0)) (and (and (or  (= x_22 g_s9_9) (= x_22 g_s10_10)) (mem0 x_21 g_s16_16)) (= x_20 g_s0_1))))))
(define-fun |def_lprp_24| () Bool (forall ( (x_23 Int) (x_24 Int) ) (= (mem2 x_24 x_23 g_s19_19) (and  (mem2 x_24 x_23 g_s15_15) (mem0 x_24 g_s4_4)))))
(define-fun |def_aprp_0| () Bool (and (forall ( (x_25 Int) ) (= (mem0 x_25 g_s20_20) (or  (= x_25 g_s21_21) (= x_25 g_s22_22) (= x_25 g_s23_23) (= x_25 g_s24_24) (= x_25 g_s25_25) (= x_25 g_s26_26) (= x_25 g_s27_27)))) (distinct g_s21_21 g_s22_22 g_s23_23 g_s24_24 g_s25_25 g_s26_26 g_s27_27)))
(define-fun |def_aprp_1| () Bool (and  (not (forall ( (x_26 Int) ) (= (mem0 x_26 g_s5_5) false))) (and  (forall ( (x_29 Int) ) (=> (mem0 x_29 g_s5_5) true)) (exists ( (x_27 Int) (x_28 (P (C Int Int))) ) (and (and (exists ( (x_30 (P (C Int Int))) ) (and (forall ( (x_31 Int) (x_32 Int) ) (= (mem2 x_32 x_31 x_30) (mem2 x_32 x_31 x_28))) (forall ( (x_33 Int) (x_34 Int) (x_35 Int) ) (=> (and  (mem2 x_33 x_34 x_30) (mem2 x_33 x_35 x_30)) (= x_34 x_35))) (forall ( (x_36 Int) ) (= (and (>= x_36 1) (<= x_36 x_27)) (exists ( (x_37 Int) ) (mem2 x_36 x_37 x_30)))) (forall ( (x_38 Int) ) (=> (exists ( (x_39 Int) ) (mem2 x_39 x_38 x_30)) (mem0 x_38 g_s5_5))))) (forall ( (x_40 Int) ) (=> (mem0 x_40 g_s5_5) (exists ( (x_41 Int) ) (mem2 x_41 x_40 x_28))))) (forall ( (x_42 Int) (x_43 Int) (x_44 Int) ) (=> (and  (mem2 x_43 x_42 x_28) (mem2 x_44 x_42 x_28)) (= x_43 x_44))))))))
(define-fun |def_aprp_2| () Bool (and  (not (forall ( (x_45 Int) ) (= (mem0 x_45 g_s3_2) false))) (and  (forall ( (x_48 Int) ) (=> (mem0 x_48 g_s3_2) true)) (exists ( (x_46 Int) (x_47 (P (C Int Int))) ) (and (and (exists ( (x_49 (P (C Int Int))) ) (and (forall ( (x_50 Int) (x_51 Int) ) (= (mem2 x_51 x_50 x_49) (mem2 x_51 x_50 x_47))) (forall ( (x_52 Int) (x_53 Int) (x_54 Int) ) (=> (and  (mem2 x_52 x_53 x_49) (mem2 x_52 x_54 x_49)) (= x_53 x_54))) (forall ( (x_55 Int) ) (= (and (>= x_55 1) (<= x_55 x_46)) (exists ( (x_56 Int) ) (mem2 x_55 x_56 x_49)))) (forall ( (x_57 Int) ) (=> (exists ( (x_58 Int) ) (mem2 x_58 x_57 x_49)) (mem0 x_57 g_s3_2))))) (forall ( (x_59 Int) ) (=> (mem0 x_59 g_s3_2) (exists ( (x_60 Int) ) (mem2 x_60 x_59 x_47))))) (forall ( (x_61 Int) (x_62 Int) (x_63 Int) ) (=> (and  (mem2 x_62 x_61 x_47) (mem2 x_63 x_61 x_47)) (= x_62 x_63))))))))
(define-fun |def_aprp_3| () Bool (and  (not (forall ( (x_64 Int) ) (= (mem0 x_64 g_s1_0) false))) (and  (forall ( (x_67 Int) ) (=> (mem0 x_67 g_s1_0) true)) (exists ( (x_65 Int) (x_66 (P (C Int Int))) ) (and (and (exists ( (x_68 (P (C Int Int))) ) (and (forall ( (x_69 Int) (x_70 Int) ) (= (mem2 x_70 x_69 x_68) (mem2 x_70 x_69 x_66))) (forall ( (x_71 Int) (x_72 Int) (x_73 Int) ) (=> (and  (mem2 x_71 x_72 x_68) (mem2 x_71 x_73 x_68)) (= x_72 x_73))) (forall ( (x_74 Int) ) (= (and (>= x_74 1) (<= x_74 x_65)) (exists ( (x_75 Int) ) (mem2 x_74 x_75 x_68)))) (forall ( (x_76 Int) ) (=> (exists ( (x_77 Int) ) (mem2 x_77 x_76 x_68)) (mem0 x_76 g_s1_0))))) (forall ( (x_78 Int) ) (=> (mem0 x_78 g_s1_0) (exists ( (x_79 Int) ) (mem2 x_79 x_78 x_66))))) (forall ( (x_80 Int) (x_81 Int) (x_82 Int) ) (=> (and  (mem2 x_81 x_80 x_66) (mem2 x_82 x_80 x_66)) (= x_81 x_82))))))))
(define-fun |def_aprp_4| () Bool (and  (not (forall ( (x_83 Int) ) (= (mem0 x_83 g_s28_28) false))) (and  (forall ( (x_86 Int) ) (=> (mem0 x_86 g_s28_28) true)) (exists ( (x_84 Int) (x_85 (P (C Int Int))) ) (and (and (exists ( (x_87 (P (C Int Int))) ) (and (forall ( (x_88 Int) (x_89 Int) ) (= (mem2 x_89 x_88 x_87) (mem2 x_89 x_88 x_85))) (forall ( (x_90 Int) (x_91 Int) (x_92 Int) ) (=> (and  (mem2 x_90 x_91 x_87) (mem2 x_90 x_92 x_87)) (= x_91 x_92))) (forall ( (x_93 Int) ) (= (and (>= x_93 1) (<= x_93 x_84)) (exists ( (x_94 Int) ) (mem2 x_93 x_94 x_87)))) (forall ( (x_95 Int) ) (=> (exists ( (x_96 Int) ) (mem2 x_96 x_95 x_87)) (mem0 x_95 g_s28_28))))) (forall ( (x_97 Int) ) (=> (mem0 x_97 g_s28_28) (exists ( (x_98 Int) ) (mem2 x_98 x_97 x_85))))) (forall ( (x_99 Int) (x_100 Int) (x_101 Int) ) (=> (and  (mem2 x_100 x_99 x_85) (mem2 x_101 x_99 x_85)) (= x_100 x_101))))))))
(define-fun |def_aprp_5| () Bool true)
(define-fun |def_aprp_6| () Bool (forall ( (x_102 Int) (x_103 Int) ) (= (mem2 x_103 x_102 g_s30_29) (and (mem0 x_103 g_s5_5) (mem0 x_102 g_s3_2)))))
(define-fun |def_aprp_7| () Bool (forall ( (x_104 Int) (x_105 Int) ) (= (mem2 x_105 x_104 g_s31_30) (and (mem0 x_105 g_s5_5) (mem0 x_104 g_s3_2)))))
(define-fun |def_aprp_8| () Bool (< 0 g_s29_31))
(define-fun |def_aprp_9| () Bool (forall ( (x_106 Int) (x_107 Int) (x_108 Int) ) (=> (mem3 x_108 x_107 x_106 g_s32_32) (and (and true (mem0 x_107 g_s20_20)) true))))
(define-fun |def_aprp_10| () Bool (forall ( (x_109 Int) (x_110 Int) (x_111 Int) ) (=> (mem3 x_111 x_110 x_109 g_s33_33) (and (and true (mem0 x_110 g_s20_20)) true))))
(define-fun |def_aprp_11| () Bool (forall ( (x_112 Int) (x_113 Int) (x_114 Int) ) (=> (mem3 x_114 x_113 x_112 g_s34_34) (and (and true (mem0 x_113 g_s20_20)) true))))
(define-fun |def_aprp_12| () Bool (forall ( (x_115 Int) (x_116 Int) (x_117 Int) ) (=> (mem3 x_117 x_116 x_115 g_s35_35) (and (and true (mem0 x_116 g_s20_20)) true))))
(define-fun |def_aprp_13| () Bool (forall ( (x_118 Int) (x_119 Int) (x_120 Int) ) (=> (mem3 x_120 x_119 x_118 g_s36_36) (and (and true (mem0 x_119 g_s20_20)) true))))
(define-fun |def_aprp_14| () Bool (forall ( (x_121 Int) (x_122 Int) (x_123 Int) ) (= (mem3 x_123 x_122 x_121 g_s32_32) (and (and (= x_123 0) (or  (= x_122 g_s21_21) (= x_122 g_s25_25) (= x_122 g_s26_26) (= x_122 g_s24_24) (= x_122 g_s22_22))) (= x_121 0)))))
(define-fun |def_aprp_15| () Bool (forall ( (x_124 Int) (x_125 Int) (x_126 Int) ) (= (mem3 x_126 x_125 x_124 g_s33_33) (and (and (= x_126 0) (or  (= x_125 g_s27_27) (= x_125 g_s23_23))) (= x_124 1)))))
(define-fun |def_aprp_16| () Bool (forall ( (x_127 Int) (x_128 Int) (x_129 Int) ) (= (mem3 x_129 x_128 x_127 g_s34_34) (and (and (= x_129 1) (= x_128 g_s22_22)) (= x_127 0)))))
(define-fun |def_aprp_17| () Bool (forall ( (x_130 Int) (x_131 Int) (x_132 Int) ) (= (mem3 x_132 x_131 x_130 g_s35_35) (and (and (= x_132 1) (or  (= x_131 g_s21_21) (= x_131 g_s25_25) (= x_131 g_s26_26) (= x_131 g_s24_24) (= x_131 g_s27_27) (= x_131 g_s23_23))) (= x_130 1)))))
(define-fun |def_aprp_18| () Bool (forall ( (x_133 Int) (x_134 Int) (x_135 Int) ) (= (mem3 x_135 x_134 x_133 g_s36_36) (or (or (or (mem3 x_135 x_134 x_133 g_s32_32) (mem3 x_135 x_134 x_133 g_s33_33)) (mem3 x_135 x_134 x_133 g_s34_34)) (mem3 x_135 x_134 x_133 g_s35_35)))))
(define-fun |def_aprp_19| () Bool (forall ( (x_136 Int) (x_137 Int) ) (=> (mem2 x_137 x_136 g_s17_17) (and (mem0 x_137 g_s5_5) (mem0 x_136 g_s3_2)))))
(define-fun |def_aprp_20| () Bool (forall ( (x_138 Int) (x_139 Int) (x_140 Int) ) (=> (mem3 x_140 x_139 x_138 g_s18_18) (and (and (mem0 x_140 g_s5_5) (mem0 x_139 g_s3_2)) (mem0 x_138 g_s1_0)))))
(define-fun |def_aprp_21| () Bool (forall ( (x_141 Int) (x_142 Int) ) (=> (mem2 x_142 x_141 g_s19_19) (and (mem0 x_142 g_s5_5) (mem0 x_141 g_s3_2)))))
(define-fun |def_aprp_22| () Bool (forall ( (x_143 Int) (x_144 Int) ) (=> (mem2 x_144 x_143 g_s30_29) (and (mem0 x_144 g_s5_5) (mem0 x_143 g_s3_2)))))
(define-fun |def_aprp_23| () Bool (forall ( (x_145 Int) (x_146 Int) ) (=> (mem2 x_146 x_145 g_s31_30) (and (mem0 x_146 g_s5_5) (mem0 x_145 g_s3_2)))))
(define-fun |def_aprp_24| () Bool (forall ( (x_147 Int) (x_148 Int) (x_149 Int) (x_150 Int) ) (= (mem4 x_150 x_149 x_148 x_147 g_s37_37) (or (or (or (or (or (and (and (mem2 x_150 x_149 g_s17_17) (mem0 x_148 g_s1_0)) (= x_147 g_s38_38)) (and (mem3 x_150 x_149 x_148 g_s18_18) (= x_147 g_s39_39))) (and (and (mem2 x_150 x_149 g_s19_19) (mem0 x_148 g_s1_0)) (= x_147 g_s40_40))) (and (and (mem2 x_150 x_149 g_s30_29) (mem0 x_148 g_s1_0)) (= x_147 g_s41_41))) (and (and (mem2 x_150 x_149 g_s31_30) (mem0 x_148 g_s1_0)) (= x_147 g_s42_42))) (and (and (and (mem0 x_150 g_s5_5) (mem0 x_149 g_s3_2)) (mem0 x_148 g_s1_0)) (= x_147 g_s43_43))))))
(define-fun |def_aprp_25| () Bool (forall ( (x_151 Int) (x_152 Int) (x_153 Int) (x_154 Int) ) (=> (mem4 x_154 x_153 x_152 x_151 g_s37_37) (and (and (and (mem0 x_154 g_s5_5) (mem0 x_153 g_s3_2)) (mem0 x_152 g_s1_0)) (mem0 x_151 g_s28_28)))))
(define-fun |def_aprp_26| () Bool (mem0 g_s38_38 g_s28_28))
(define-fun |def_aprp_27| () Bool (mem0 g_s39_39 g_s28_28))
(define-fun |def_aprp_28| () Bool (mem0 g_s40_40 g_s28_28))
(define-fun |def_aprp_29| () Bool (mem0 g_s41_41 g_s28_28))
(define-fun |def_aprp_30| () Bool (mem0 g_s42_42 g_s28_28))
(define-fun |def_aprp_31| () Bool (mem0 g_s43_43 g_s28_28))
(define-fun |def_aprp_32| () Bool (not (or  (= g_s38_38 g_s39_39) (= g_s38_38 g_s40_40) (= g_s38_38 g_s41_41) (= g_s38_38 g_s42_42) (= g_s38_38 g_s43_43))))
(define-fun |def_aprp_33| () Bool (not (or  (= g_s39_39 g_s38_38) (= g_s39_39 g_s40_40) (= g_s39_39 g_s41_41) (= g_s39_39 g_s42_42) (= g_s39_39 g_s43_43))))
(define-fun |def_aprp_34| () Bool (not (or  (= g_s40_40 g_s38_38) (= g_s40_40 g_s39_39) (= g_s40_40 g_s41_41) (= g_s40_40 g_s42_42) (= g_s40_40 g_s43_43))))
(define-fun |def_aprp_35| () Bool (not (or  (= g_s41_41 g_s38_38) (= g_s41_41 g_s39_39) (= g_s41_41 g_s40_40) (= g_s41_41 g_s42_42) (= g_s41_41 g_s43_43))))
(define-fun |def_aprp_36| () Bool (not (or  (= g_s42_42 g_s38_38) (= g_s42_42 g_s39_39) (= g_s42_42 g_s40_40) (= g_s42_42 g_s41_41) (= g_s42_42 g_s43_43))))
(define-fun |def_aprp_37| () Bool (not (or  (= g_s43_43 g_s38_38) (= g_s43_43 g_s39_39) (= g_s43_43 g_s40_40) (= g_s43_43 g_s41_41) (= g_s43_43 g_s42_42))))
(define-fun |def_abs_0| () Bool (mem0 g_s44$1_44 g_s3_2))
(define-fun |def_abs_1| () Bool true)
(define-fun |def_abs_2| () Bool (forall ( (x_155 Int) (x_156 Int) ) (=> (mem2 x_156 x_155 g_s46$1_45) (and true (mem0 x_155 g_s3_2)))))
(define-fun |def_abs_3| () Bool (forall ( (x_157 Int) (x_158 Int) ) (=> (mem2 x_158 x_157 g_s47$1_46) (and true (mem0 x_157 g_s3_2)))))
(define-fun |def_abs_4| () Bool (forall ( (x_159 Int) (x_160 Int) ) (= (mem2 x_160 x_159 g_s48_47) (exists ( (x_161 Int) (x_162 Int) ) (and  (and (and (mem0 x_160 g_s5_5) (mem0 x_159 g_s3_2)) (and (= x_162 g_s29_31) (= x_161 0))) (not (and (= x_162 g_s45$1_48) (= x_161 g_s49$1_49))))))))
(define-fun |def_abs_5| () Bool (forall ( (x_163 Int) (x_164 Int) ) (= (mem2 x_164 x_163 g_s50_50) (exists ( (x_165 Int) (x_166 Int) ) (and  (and (and (mem0 x_164 g_s5_5) (mem0 x_163 g_s3_2)) (and (= x_166 0) (= x_165 0))) (not (and (= x_166 g_s45$1_48) (= x_165 g_s49$1_49))))))))
(define-fun |def_abs_6| () Bool (and (>= g_s45$1_48 0) (<= g_s45$1_48 g_s29_31)))
(define-fun |def_abs_7| () Bool (exists ( (x_167 (P (C Int Int))) ) (and (forall ( (x_168 Int) (x_169 Int) ) (= (mem2 x_169 x_168 x_167) (mem2 x_169 x_168 g_s46$1_45))) (forall ( (x_170 Int) (x_171 Int) (x_172 Int) ) (=> (and  (mem2 x_170 x_171 x_167) (mem2 x_170 x_172 x_167)) (= x_171 x_172))) (forall ( (x_173 Int) ) (= (and (>= x_173 1) (<= x_173 g_s29_31)) (exists ( (x_174 Int) ) (mem2 x_173 x_174 x_167)))) (forall ( (x_175 Int) ) (=> (exists ( (x_176 Int) ) (mem2 x_176 x_175 x_167)) (mem0 x_175 g_s3_2))))))
(define-fun |def_abs_8| () Bool (exists ( (x_177 (P (C Int Int))) ) (and (forall ( (x_178 Int) (x_179 Int) ) (= (mem2 x_179 x_178 x_177) (mem2 x_179 x_178 g_s47$1_46))) (forall ( (x_180 Int) (x_181 Int) (x_182 Int) ) (=> (and  (mem2 x_180 x_181 x_177) (mem2 x_180 x_182 x_177)) (= x_181 x_182))) (forall ( (x_183 Int) ) (= (and (>= x_183 1) (<= x_183 g_s29_31)) (exists ( (x_184 Int) ) (mem2 x_183 x_184 x_177)))) (forall ( (x_185 Int) ) (=> (exists ( (x_186 Int) ) (mem2 x_186 x_185 x_177)) (mem0 x_185 g_s3_2))))))
(define-fun |def_abs_9| () Bool true)
(define-fun |def_abs_10| () Bool (mem0 g_s52_51 g_s20_20))
(define-fun |def_abs_11| () Bool true)
(define-fun |def_abs_12| () Bool (mem3 g_s51_52 g_s52_51 g_s49$1_49 g_s36_36))
(define-fun |def_abs_13| () Bool (forall ( (x_187 Int) (x_188 Int) ) (=> (mem2 x_188 x_187 g_s53_53) (and (mem0 x_188 g_s5_5) (mem0 x_187 g_s3_2)))))
(define-fun |def_abs_14| () Bool (forall ( (x_189 Int) (x_190 Int) (x_191 Int) ) (=> (mem3 x_191 x_190 x_189 g_s54_54) (and (and (mem0 x_191 g_s5_5) (mem0 x_190 g_s3_2)) (mem0 x_189 g_s1_0)))))
(define-fun |def_abs_15| () Bool (forall ( (x_192 Int) (x_193 Int) ) (=> (mem2 x_193 x_192 g_s55_55) (and (mem0 x_193 g_s5_5) (mem0 x_192 g_s3_2)))))
(define-fun |def_abs_16| () Bool (forall ( (x_194 Int) (x_195 Int) ) (=> (mem2 x_195 x_194 g_s48_47) (and (mem0 x_195 g_s5_5) (mem0 x_194 g_s3_2)))))
(define-fun |def_abs_17| () Bool (forall ( (x_196 Int) (x_197 Int) ) (=> (mem2 x_197 x_196 g_s50_50) (and (mem0 x_197 g_s5_5) (mem0 x_196 g_s3_2)))))
(define-fun |def_abs_18| () Bool (forall ( (x_198 Int) (x_199 Int) (x_200 Int) (x_201 Int) ) (= (mem4 x_201 x_200 x_199 x_198 g_s56_56) (or (or (or (or (or (and (and (mem2 x_201 x_200 g_s53_53) (mem0 x_199 g_s1_0)) (= x_198 g_s38_38)) (and (mem3 x_201 x_200 x_199 g_s54_54) (= x_198 g_s39_39))) (and (and (mem2 x_201 x_200 g_s55_55) (mem0 x_199 g_s1_0)) (= x_198 g_s40_40))) (and (and (mem2 x_201 x_200 g_s48_47) (mem0 x_199 g_s1_0)) (= x_198 g_s41_41))) (and (and (mem2 x_201 x_200 g_s50_50) (mem0 x_199 g_s1_0)) (= x_198 g_s42_42))) (and (and (and (mem0 x_201 g_s5_5) (mem0 x_200 g_s3_2)) (mem0 x_199 g_s1_0)) (= x_198 g_s43_43))))))
(define-fun |def_abs_19| () Bool true)
(define-fun |def_abs_20| () Bool (mem0 g_s58$1_57 g_s5_5))
(define-fun |def_abs_21| () Bool (mem0 g_s59$1_58 g_s3_2))
(define-fun |def_abs_22| () Bool (mem0 g_s60$1_59 g_s1_0))
(define-fun |def_abs_23| () Bool (mem0 g_s61$1_60 g_s28_28))
(define-fun |def_abs_24| () Bool true)
(define-fun |def_abs_25| () Bool (forall ( (x_202 Int) (x_203 Int) (x_204 Int) (x_205 Int) ) (=> (mem4 x_205 x_204 x_203 x_202 g_s56_56) (and (and (and (mem0 x_205 g_s5_5) (mem0 x_204 g_s3_2)) (mem0 x_203 g_s1_0)) (mem0 x_202 g_s28_28)))))
(define-fun |def_abs_26| () Bool (exists ( (x_206 (P (C (C Int Int) Int))) ) (and (forall ( (x_207 Int) (x_208 Int) (x_209 Int) ) (= (mem3 x_209 x_208 x_207 x_206) (mem3 x_209 x_208 x_207 g_s36_36))) (forall ( (x_210 Int) (x_211 Int) (x_212 Int) (x_213 Int) ) (=> (and  (mem3 x_211 x_210 x_212 x_206) (mem3 x_211 x_210 x_213 x_206)) (= x_212 x_213))) (forall ( (x_214 Int) (x_215 Int) ) (= (and (or  (= x_215 0) (= x_215 1)) (mem0 x_214 g_s20_20)) (exists ( (x_216 Int) ) (mem3 x_215 x_214 x_216 x_206)))) (forall ( (x_217 Int) ) (=> (exists ( (x_218 Int) (x_219 Int) ) (mem3 x_219 x_218 x_217 x_206)) (or  (= x_217 0) (= x_217 1)))))))
(define-fun |def_abs_27| () Bool (or  (= g_s49$1_49 0) (= g_s49$1_49 1)))
(define-fun |def_inv_0| () Bool (= g_s57_61 g_s57$1_62))
(define-fun |def_inv_1| () Bool (= g_s58_63 g_s58$1_57))
(define-fun |def_inv_2| () Bool (= g_s59_64 g_s59$1_58))
(define-fun |def_inv_3| () Bool (= g_s60_65 g_s60$1_59))
(define-fun |def_inv_4| () Bool (= g_s61_66 g_s61$1_60))
(define-fun |def_inv_5| () Bool (= g_s62_67 g_s62$1_68))
(define-fun |def_inv_6| () Bool (= g_s49_69 g_s49$1_49))
(define-fun |def_inv_7| () Bool (= g_s44_70 g_s44$1_44))
(define-fun |def_inv_8| () Bool (= g_s45_71 g_s45$1_48))
(define-fun |def_inv_9| () Bool (forall ( (x_220 Int) (x_221 Int) ) (= (mem2 x_221 x_220 g_s46_72) (mem2 x_221 x_220 g_s46$1_45))))
(define-fun |def_inv_10| () Bool (forall ( (x_222 Int) (x_223 Int) ) (= (mem2 x_223 x_222 g_s47_73) (mem2 x_223 x_222 g_s47$1_46))))
(define-fun |def_inv_11| () Bool (forall ( (x_224 Int) (x_225 Int) ) (=> (mem2 x_225 x_224 g_s63$1_74) (and (mem0 x_225 g_s5_5) (mem0 x_224 g_s3_2)))))
(define-fun |def_inv_12| () Bool (forall ( (x_226 Int) (x_227 Int) ) (=> (mem2 x_227 x_226 g_s64$1_75) (and (mem0 x_227 g_s5_5) (mem0 x_226 g_s3_2)))))
(define-fun |def_inv_13| () Bool (forall ( (x_228 Int) (x_229 Int) ) (=> (mem2 x_229 x_228 g_s65$1_76) (and (mem0 x_229 g_s5_5) (mem0 x_228 g_s3_2)))))
(define-fun |def_inv_14| () Bool true)
(define-fun |def_inv_15| () Bool (forall ( (x_230 Int) ) (=> (mem0 x_230 g_s67$1_77) (mem0 x_230 g_s3_2))))
(define-fun |def_inv_16| () Bool (forall ( (x_231 Int) (x_232 Int) ) (= (mem2 x_232 x_231 g_s53_53) (or (or (or (or (or (or (and  (mem2 x_232 x_231 g_s63$1_74) (mem0 x_232 g_s4_4)) (and (mem0 x_232 g_s8_8) (mem0 x_231 g_s67$1_77))) (and (or  (= x_232 g_s9_9) (= x_232 g_s10_10)) (mem0 x_231 g_s67$1_77))) (and (mem0 x_232 g_s7_7) (= x_231 g_s2_3))) (exists ( (x_233 Int) ) (and  (and (and (mem0 x_232 g_s6_6) (mem0 x_231 g_s3_2)) (= x_233 1)) (= x_233 g_s49$1_49)))) (and (= x_232 g_s11_11) (mem0 x_231 g_s3_2))) (and (= x_232 g_s12_12) (= x_231 g_s2_3))))))
(define-fun |def_inv_17| () Bool (forall ( (x_234 Int) (x_235 Int) (x_236 Int) ) (= (mem3 x_236 x_235 x_234 g_s54_54) (or (and (or (or (or (and  (mem2 x_236 x_235 g_s64$1_75) (mem0 x_236 g_s4_4)) (and (mem0 x_236 g_s8_8) (mem0 x_235 g_s67$1_77))) (exists ( (x_237 Bool) ) (and  (and (and (mem0 x_236 g_s7_7) (= x_235 g_s2_3)) (= x_237 false)) (= x_237 g_s66$1_78)))) (and (= x_236 g_s12_12) (= x_235 g_s2_3))) (mem0 x_234 g_s1_0)) (and (and (or  (= x_236 g_s9_9) (= x_236 g_s10_10)) (mem0 x_235 g_s67$1_77)) (= x_234 g_s0_1))))))
(define-fun |def_inv_18| () Bool (forall ( (x_238 Int) (x_239 Int) ) (= (mem2 x_239 x_238 g_s55_55) (and  (mem2 x_239 x_238 g_s65$1_76) (mem0 x_239 g_s4_4)))))
; PO group s97
(assert (! |def_aprp_0| :named |aprp0|))
(assert (! |def_aprp_1| :named |aprp1|))
(assert (! |def_aprp_2| :named |aprp2|))
(assert (! |def_aprp_3| :named |aprp3|))
(assert (! |def_aprp_4| :named |aprp4|))
(assert (! |def_aprp_5| :named |aprp5|))
(assert (! |def_aprp_6| :named |aprp6|))
(assert (! |def_aprp_7| :named |aprp7|))
(assert (! |def_aprp_8| :named |aprp8|))
(assert (! |def_aprp_9| :named |aprp9|))
(assert (! |def_aprp_10| :named |aprp10|))
(assert (! |def_aprp_11| :named |aprp11|))
(assert (! |def_aprp_12| :named |aprp12|))
(assert (! |def_aprp_13| :named |aprp13|))
(assert (! |def_aprp_14| :named |aprp14|))
(assert (! |def_aprp_15| :named |aprp15|))
(assert (! |def_aprp_16| :named |aprp16|))
(assert (! |def_aprp_17| :named |aprp17|))
(assert (! |def_aprp_18| :named |aprp18|))
(assert (! |def_aprp_19| :named |aprp19|))
(assert (! |def_aprp_20| :named |aprp20|))
(assert (! |def_aprp_21| :named |aprp21|))
(assert (! |def_aprp_22| :named |aprp22|))
(assert (! |def_aprp_23| :named |aprp23|))
(assert (! |def_aprp_24| :named |aprp24|))
(assert (! |def_aprp_25| :named |aprp25|))
(assert (! |def_aprp_26| :named |aprp26|))
(assert (! |def_aprp_27| :named |aprp27|))
(assert (! |def_aprp_28| :named |aprp28|))
(assert (! |def_aprp_29| :named |aprp29|))
(assert (! |def_aprp_30| :named |aprp30|))
(assert (! |def_aprp_31| :named |aprp31|))
(assert (! |def_aprp_32| :named |aprp32|))
(assert (! |def_aprp_33| :named |aprp33|))
(assert (! |def_aprp_34| :named |aprp34|))
(assert (! |def_aprp_35| :named |aprp35|))
(assert (! |def_aprp_36| :named |aprp36|))
(assert (! |def_aprp_37| :named |aprp37|))
(assert (! |def_lprp_0| :named |lprp0|))
(assert (! |def_lprp_1| :named |lprp1|))
(assert (! |def_lprp_2| :named |lprp2|))
(assert (! |def_lprp_3| :named |lprp3|))
(assert (! |def_lprp_4| :named |lprp4|))
(assert (! |def_lprp_5| :named |lprp5|))
(assert (! |def_lprp_6| :named |lprp6|))
(assert (! |def_lprp_7| :named |lprp7|))
(assert (! |def_lprp_8| :named |lprp8|))
(assert (! |def_lprp_9| :named |lprp9|))
(assert (! |def_lprp_10| :named |lprp10|))
(assert (! |def_lprp_11| :named |lprp11|))
(assert (! |def_lprp_12| :named |lprp12|))
(assert (! |def_lprp_13| :named |lprp13|))
(assert (! |def_lprp_14| :named |lprp14|))
(assert (! |def_lprp_15| :named |lprp15|))
(assert (! |def_lprp_16| :named |lprp16|))
(assert (! |def_lprp_17| :named |lprp17|))
(assert (! |def_lprp_18| :named |lprp18|))
(assert (! |def_lprp_19| :named |lprp19|))
(assert (! |def_lprp_20| :named |lprp20|))
(assert (! |def_lprp_21| :named |lprp21|))
(assert (! |def_lprp_22| :named |lprp22|))
(assert (! |def_lprp_23| :named |lprp23|))
(assert (! |def_lprp_24| :named |lprp24|))
(assert (! |def_abs_0| :named |abs0|))
(assert (! |def_abs_1| :named |abs1|))
(assert (! |def_abs_2| :named |abs2|))
(assert (! |def_abs_3| :named |abs3|))
(assert (! |def_abs_4| :named |abs4|))
(assert (! |def_abs_5| :named |abs5|))
(assert (! |def_abs_6| :named |abs6|))
(assert (! |def_abs_7| :named |abs7|))
(assert (! |def_abs_8| :named |abs8|))
(assert (! |def_abs_9| :named |abs9|))
(assert (! |def_abs_10| :named |abs10|))
(assert (! |def_abs_11| :named |abs11|))
(assert (! |def_abs_12| :named |abs12|))
(assert (! |def_abs_13| :named |abs13|))
(assert (! |def_abs_14| :named |abs14|))
(assert (! |def_abs_15| :named |abs15|))
(assert (! |def_abs_16| :named |abs16|))
(assert (! |def_abs_17| :named |abs17|))
(assert (! |def_abs_18| :named |abs18|))
(assert (! |def_abs_19| :named |abs19|))
(assert (! |def_abs_20| :named |abs20|))
(assert (! |def_abs_21| :named |abs21|))
(assert (! |def_abs_22| :named |abs22|))
(assert (! |def_abs_23| :named |abs23|))
(assert (! |def_abs_24| :named |abs24|))
(assert (! |def_abs_25| :named |abs25|))
(assert (! |def_abs_26| :named |abs26|))
(assert (! |def_abs_27| :named |abs27|))
(assert (! |def_inv_0| :named |inv0|))
(assert (! |def_inv_1| :named |inv1|))
(assert (! |def_inv_2| :named |inv2|))
(assert (! |def_inv_3| :named |inv3|))
(assert (! |def_inv_4| :named |inv4|))
(assert (! |def_inv_5| :named |inv5|))
(assert (! |def_inv_6| :named |inv6|))
(assert (! |def_inv_7| :named |inv7|))
(assert (! |def_inv_8| :named |inv8|))
(assert (! |def_inv_9| :named |inv9|))
(assert (! |def_inv_10| :named |inv10|))
(assert (! |def_inv_11| :named |inv11|))
(assert (! |def_inv_12| :named |inv12|))
(assert (! |def_inv_13| :named |inv13|))
(assert (! |def_inv_14| :named |inv14|))
(assert (! |def_inv_15| :named |inv15|))
(assert (! |def_inv_16| :named |inv16|))
(assert (! |def_inv_17| :named |inv17|))
(assert (! |def_inv_18| :named |inv18|))
(define-fun lh_1 () Bool (= g_s57$1_62 2))
(define-fun lh_2 () Bool (mem4 g_s58$1_57 g_s59$1_58 g_s60$1_59 g_s61$1_60 g_s56_56))
(define-fun lh_3 () Bool (mem0 g_s59$2_79 g_s3_2))
(define-fun lh_4 () Bool (forall ( (x_240 Int) (x_241 Int) (x_242 Int) (x_243 Int) ) (=> (mem4 x_243 x_242 x_241 x_240 g_s56$1_80) (and (and (and (mem0 x_243 g_s5_5) (mem0 x_242 g_s3_2)) (mem0 x_241 g_s1_0)) (mem0 x_240 g_s28_28)))))
; PO 1 in group s97
(assert (! (not (=> (and lh_1 lh_2 lh_3 lh_4) (mem4 g_s58_63 g_s59_64 g_s60_65 g_s61_66 g_s56$1_80))) :named goal))
(check-sat)
(exit)
